1878.0,2078.0,2278.0,2323.0,1878.0,1922.0,1896.0,2078.0,2278.0,2298.0,1855.0,1964.0,2164.0,2656.0,2064.0,2116.0,1873.0,1891.0,1909.0,2055.0,2028.0,2046.0,1955.0,2055.0,2056.0,1831.0,1828.0,1867.0,2028.0,2106.0,2038.0,2028.0,2074.0,2097.0,2028.0,2228.0,2428.0,1867.0,1937.0,2137.0,1865.0,2028.0,2046.0,1824.0,2448.0,1881.0,1933.0,2133.0,2193.0,1796.0,1896.0,1919.0,1814.0,1996.0,2050.0,1996.0,2096.0,2142.0,1905.0,2003.0,1880.0,1806.0,1996.0,2196.0,1757.0,1730.0,1769.0